% seed = 1489889

mint = 67;
% maxt = 232;

nActs = 42;
dur = [0,8,8,2,8,9,9,1,8,8,9,7,10,1,3,7,2,9,10,7,8,3,7,9,2,7,4,1,3,9,2,10,8,2,10,2,1,2,3,5,8,0];

nSkills = 4;
sreq = [| 0,0,0,0,
	| 0,6,5,2,
	| 4,0,2,7,
	| 7,3,0,4,
	| 7,5,3,0,
	| 3,7,0,6,
	| 0,4,1,3,
	| 3,1,5,0,
	| 1,0,4,4,
	| 1,0,4,6,
	| 2,0,2,4,
	| 4,4,0,4,
	| 6,5,5,0,
	| 4,4,7,0,
	| 0,5,2,5,
	| 7,0,4,2,
	| 7,0,5,5,
	| 5,2,0,6,
	| 7,0,6,4,
	| 2,4,3,0,
	| 5,5,0,6,
	| 4,5,4,0,
	| 5,4,0,5,
	| 7,2,2,0,
	| 0,2,6,4,
	| 5,4,0,4,
	| 0,3,4,1,
	| 4,6,5,0,
	| 3,4,4,0,
	| 4,1,0,4,
	| 0,2,4,3,
	| 4,2,0,3,
	| 2,6,3,0,
	| 1,1,5,0,
	| 4,4,4,0,
	| 2,0,2,6,
	| 2,0,4,3,
	| 0,3,4,5,
	| 5,6,3,0,
	| 3,5,2,0,
	| 0,3,5,7,
	| 0,0,0,0, |];

nResources = 30;
mastery = [| true,true,false,false,
	| true,true,false,false,
	| false,true,false,false,
	| false,true,true,false,
	| false,true,true,true,
	| true,false,false,true,
	| true,true,false,true,
	| true,true,true,false,
	| false,true,true,true,
	| true,false,true,true,
	| true,false,true,true,
	| true,true,false,false,
	| true,true,true,false,
	| false,true,false,false,
	| false,true,false,true,
	| false,true,true,true,
	| true,false,true,false,
	| false,false,false,true,
	| false,false,true,false,
	| false,false,false,true,
	| true,false,true,false,
	| false,true,true,true,
	| false,true,false,false,
	| false,true,false,true,
	| true,true,false,true,
	| true,true,true,false,
	| false,false,true,false,
	| true,true,false,false,
	| false,true,false,true,
	| true,true,false,false, |];

nPrecs = 73;
pred = [1,1,1,2,2,3,3,3,4,4,5,5,5,6,6,6,7,7,7,8,8,8,9,9,9,10,11,11,11,12,13,13,13,14,14,15,15,16,16,17,17,18,18,18,19,19,20,21,22,22,22,23,24,25,26,27,28,29,30,31,32,33,33,34,35,35,36,36,37,38,39,40,41];
succ = [2,3,4,13,5,18,6,14,9,37,19,20,8,17,11,7,10,24,26,16,21,40,25,38,15,34,19,12,16,30,32,16,24,27,38,30,31,29,22,33,35,19,20,27,25,26,39,23,26,37,31,29,36,32,39,28,32,31,35,34,35,41,36,41,37,40,38,39,41,40,42,42,42];

nUnrels = 488;
unpred = [2,2,2,2,2,2,2,2,2,2,2,2,2,2,2,2,3,3,3,3,3,3,3,3,4,4,4,4,4,4,4,4,4,4,4,4,4,4,4,4,4,4,4,4,4,4,4,4,4,5,5,5,5,5,5,5,5,5,5,5,5,5,5,5,5,5,5,6,6,6,6,6,6,6,6,6,6,6,7,7,7,7,7,7,7,7,7,7,7,7,7,7,7,7,7,7,7,7,7,7,7,7,7,8,8,8,8,8,8,8,8,8,8,8,8,8,8,8,8,8,8,8,8,8,9,9,9,9,9,9,9,9,9,9,9,9,9,9,9,9,9,9,9,9,9,10,10,10,10,10,10,10,10,10,10,10,10,10,10,10,10,10,10,10,10,10,10,10,10,10,10,10,10,10,11,11,11,11,11,11,11,11,11,11,11,11,11,11,12,12,12,12,12,12,12,12,12,12,12,12,12,12,12,12,12,12,12,12,12,12,12,12,13,13,13,13,13,13,13,13,13,13,13,13,13,14,14,14,14,14,14,14,14,14,14,14,14,14,14,14,14,14,14,14,15,15,15,15,15,15,15,15,15,15,15,15,15,15,15,15,15,15,15,16,16,16,16,16,16,16,16,16,16,16,16,16,16,16,16,16,17,17,17,17,17,17,17,17,17,17,17,17,17,17,17,17,18,18,18,18,18,18,18,18,18,18,18,19,19,19,19,19,19,19,19,19,19,19,19,19,19,20,20,20,20,20,20,20,20,20,20,20,20,20,20,20,20,20,20,20,20,21,21,21,21,21,21,21,21,21,21,21,21,21,21,21,22,22,22,22,22,22,22,22,22,22,22,22,22,23,23,23,23,23,23,23,23,23,23,23,23,23,23,24,24,24,24,24,24,24,24,24,24,24,24,24,25,25,25,25,25,25,25,25,25,25,25,26,26,26,26,26,26,26,26,26,26,26,26,26,26,27,27,27,27,27,27,27,27,28,28,28,28,28,28,28,28,29,29,29,29,29,29,29,29,29,30,30,30,30,30,30,30,31,31,31,31,31,31,31,31,32,32,32,32,32,33,33,33,34,34,34,34,34,34,35,35,35,36,36,37,37,37,38,38,39,39,40];
unsucc = [3,4,6,7,9,10,11,12,14,15,17,18,27,28,30,33,4,5,8,9,13,15,21,23,5,6,7,8,10,11,12,13,14,16,17,18,19,20,21,22,23,24,26,27,28,29,33,36,39,6,7,9,10,11,12,13,14,15,17,18,24,27,28,30,33,36,38,8,9,13,14,15,18,20,21,23,27,28,8,9,11,12,13,14,15,16,17,18,19,20,21,22,23,25,27,28,29,30,31,32,33,35,37,9,10,11,12,13,14,15,17,18,19,20,24,25,27,28,30,32,33,35,36,38,10,11,12,13,14,16,17,18,19,20,21,22,23,24,26,27,28,29,33,36,39,11,12,13,14,15,16,17,18,19,20,21,22,23,24,25,26,27,28,29,30,31,32,33,35,36,37,38,39,40,13,14,15,17,18,20,21,23,24,27,28,33,36,38,13,14,15,16,17,18,19,20,21,22,23,24,25,26,27,28,29,31,32,33,34,36,38,39,14,15,17,18,19,20,21,23,25,27,28,30,33,15,16,17,18,19,20,21,22,23,24,25,26,29,30,31,33,34,36,39,16,17,18,19,20,21,22,23,24,25,26,27,28,29,32,33,36,38,39,17,18,19,20,21,23,24,25,27,28,30,32,33,35,36,38,40,18,19,20,21,22,23,24,25,26,27,28,29,30,31,32,34,21,22,23,24,29,30,31,33,34,36,38,20,21,22,23,24,27,28,29,30,31,33,34,36,38,21,22,23,24,25,26,27,28,29,30,31,32,33,34,35,36,37,38,40,41,22,24,25,26,27,28,30,32,33,35,36,37,38,39,40,23,24,25,27,28,29,30,32,33,35,36,38,40,24,25,26,27,28,30,32,33,35,36,37,38,39,40,25,26,27,28,29,30,31,32,33,34,35,37,41,26,27,28,29,30,31,33,34,36,38,39,27,28,29,30,31,32,33,34,35,36,37,38,40,41,29,30,31,33,34,36,38,39,29,30,31,33,34,36,38,39,30,32,33,35,36,37,38,39,40,31,32,33,34,36,38,39,32,33,35,36,37,38,39,40,33,34,36,38,39,34,35,37,35,36,37,38,39,40,36,38,39,37,41,38,39,40,39,41,40,41,41];

USEFUL_RES = [{},
	{1,2,3,4,5,6,7,8,9,10,11,12,13,14,15,16,17,18,19,20,21,22,23,24,25,26,27,28,29,30},
	{1,2,4,5,6,7,8,9,10,11,12,13,15,16,17,18,19,20,21,22,24,25,26,27,28,29,30},
	{1,2,3,4,5,6,7,8,9,10,11,12,13,14,15,16,17,18,20,21,22,23,24,25,26,28,29,30},
	{1,2,3,4,5,6,7,8,9,10,11,12,13,14,15,16,17,19,21,22,23,24,25,26,27,28,29,30},
	{1,2,3,4,5,6,7,8,9,10,11,12,13,14,15,16,17,18,20,21,22,23,24,25,26,28,29,30},
	{1,2,3,4,5,6,7,8,9,10,11,12,13,14,15,16,17,18,19,20,21,22,23,24,25,26,27,28,29,30},
	{1,2,3,4,5,6,7,8,9,10,11,12,13,14,15,16,17,19,21,22,23,24,25,26,27,28,29,30},
	{1,2,4,5,6,7,8,9,10,11,12,13,15,16,17,18,19,20,21,22,24,25,26,27,28,29,30},
	{1,2,4,5,6,7,8,9,10,11,12,13,15,16,17,18,19,20,21,22,24,25,26,27,28,29,30},
	{1,2,4,5,6,7,8,9,10,11,12,13,15,16,17,18,19,20,21,22,24,25,26,27,28,29,30},
	{1,2,3,4,5,6,7,8,9,10,11,12,13,14,15,16,17,18,20,21,22,23,24,25,26,28,29,30},
	{1,2,3,4,5,6,7,8,9,10,11,12,13,14,15,16,17,19,21,22,23,24,25,26,27,28,29,30},
	{1,2,3,4,5,6,7,8,9,10,11,12,13,14,15,16,17,19,21,22,23,24,25,26,27,28,29,30},
	{1,2,3,4,5,6,7,8,9,10,11,12,13,14,15,16,17,18,19,20,21,22,23,24,25,26,27,28,29,30},
	{1,2,4,5,6,7,8,9,10,11,12,13,15,16,17,18,19,20,21,22,24,25,26,27,28,29,30},
	{1,2,4,5,6,7,8,9,10,11,12,13,15,16,17,18,19,20,21,22,24,25,26,27,28,29,30},
	{1,2,3,4,5,6,7,8,9,10,11,12,13,14,15,16,17,18,20,21,22,23,24,25,26,28,29,30},
	{1,2,4,5,6,7,8,9,10,11,12,13,15,16,17,18,19,20,21,22,24,25,26,27,28,29,30},
	{1,2,3,4,5,6,7,8,9,10,11,12,13,14,15,16,17,19,21,22,23,24,25,26,27,28,29,30},
	{1,2,3,4,5,6,7,8,9,10,11,12,13,14,15,16,17,18,20,21,22,23,24,25,26,28,29,30},
	{1,2,3,4,5,6,7,8,9,10,11,12,13,14,15,16,17,19,21,22,23,24,25,26,27,28,29,30},
	{1,2,3,4,5,6,7,8,9,10,11,12,13,14,15,16,17,18,20,21,22,23,24,25,26,28,29,30},
	{1,2,3,4,5,6,7,8,9,10,11,12,13,14,15,16,17,19,21,22,23,24,25,26,27,28,29,30},
	{1,2,3,4,5,6,7,8,9,10,11,12,13,14,15,16,17,18,19,20,21,22,23,24,25,26,27,28,29,30},
	{1,2,3,4,5,6,7,8,9,10,11,12,13,14,15,16,17,18,20,21,22,23,24,25,26,28,29,30},
	{1,2,3,4,5,6,7,8,9,10,11,12,13,14,15,16,17,18,19,20,21,22,23,24,25,26,27,28,29,30},
	{1,2,3,4,5,6,7,8,9,10,11,12,13,14,15,16,17,19,21,22,23,24,25,26,27,28,29,30},
	{1,2,3,4,5,6,7,8,9,10,11,12,13,14,15,16,17,19,21,22,23,24,25,26,27,28,29,30},
	{1,2,3,4,5,6,7,8,9,10,11,12,13,14,15,16,17,18,20,21,22,23,24,25,26,28,29,30},
	{1,2,3,4,5,6,7,8,9,10,11,12,13,14,15,16,17,18,19,20,21,22,23,24,25,26,27,28,29,30},
	{1,2,3,4,5,6,7,8,9,10,11,12,13,14,15,16,17,18,20,21,22,23,24,25,26,28,29,30},
	{1,2,3,4,5,6,7,8,9,10,11,12,13,14,15,16,17,19,21,22,23,24,25,26,27,28,29,30},
	{1,2,3,4,5,6,7,8,9,10,11,12,13,14,15,16,17,19,21,22,23,24,25,26,27,28,29,30},
	{1,2,3,4,5,6,7,8,9,10,11,12,13,14,15,16,17,19,21,22,23,24,25,26,27,28,29,30},
	{1,2,4,5,6,7,8,9,10,11,12,13,15,16,17,18,19,20,21,22,24,25,26,27,28,29,30},
	{1,2,4,5,6,7,8,9,10,11,12,13,15,16,17,18,19,20,21,22,24,25,26,27,28,29,30},
	{1,2,3,4,5,6,7,8,9,10,11,12,13,14,15,16,17,18,19,20,21,22,23,24,25,26,27,28,29,30},
	{1,2,3,4,5,6,7,8,9,10,11,12,13,14,15,16,17,19,21,22,23,24,25,26,27,28,29,30},
	{1,2,3,4,5,6,7,8,9,10,11,12,13,14,15,16,17,19,21,22,23,24,25,26,27,28,29,30},
	{1,2,3,4,5,6,7,8,9,10,11,12,13,14,15,16,17,18,19,20,21,22,23,24,25,26,27,28,29,30},
	{}];

POTENTIAL_ACT = [{2,3,4,5,6,7,8,9,10,11,12,13,14,15,16,17,18,19,20,21,22,23,24,25,26,27,28,29,30,31,32,33,34,35,36,37,38,39,40,41},
	{2,3,4,5,6,7,8,9,10,11,12,13,14,15,16,17,18,19,20,21,22,23,24,25,26,27,28,29,30,31,32,33,34,35,36,37,38,39,40,41},
	{2,4,5,6,7,8,12,13,14,15,18,20,21,22,23,24,25,26,27,28,29,30,31,32,33,34,35,38,39,40,41},
	{2,3,4,5,6,7,8,9,10,11,12,13,14,15,16,17,18,19,20,21,22,23,24,25,26,27,28,29,30,31,32,33,34,35,36,37,38,39,40,41},
	{2,3,4,5,6,7,8,9,10,11,12,13,14,15,16,17,18,19,20,21,22,23,24,25,26,27,28,29,30,31,32,33,34,35,36,37,38,39,40,41},
	{2,3,4,5,6,7,8,9,10,11,12,13,14,15,16,17,18,19,20,21,22,23,24,25,26,27,28,29,30,31,32,33,34,35,36,37,38,39,40,41},
	{2,3,4,5,6,7,8,9,10,11,12,13,14,15,16,17,18,19,20,21,22,23,24,25,26,27,28,29,30,31,32,33,34,35,36,37,38,39,40,41},
	{2,3,4,5,6,7,8,9,10,11,12,13,14,15,16,17,18,19,20,21,22,23,24,25,26,27,28,29,30,31,32,33,34,35,36,37,38,39,40,41},
	{2,3,4,5,6,7,8,9,10,11,12,13,14,15,16,17,18,19,20,21,22,23,24,25,26,27,28,29,30,31,32,33,34,35,36,37,38,39,40,41},
	{2,3,4,5,6,7,8,9,10,11,12,13,14,15,16,17,18,19,20,21,22,23,24,25,26,27,28,29,30,31,32,33,34,35,36,37,38,39,40,41},
	{2,3,4,5,6,7,8,9,10,11,12,13,14,15,16,17,18,19,20,21,22,23,24,25,26,27,28,29,30,31,32,33,34,35,36,37,38,39,40,41},
	{2,3,4,5,6,7,8,9,10,11,12,13,14,15,16,17,18,19,20,21,22,23,24,25,26,27,28,29,30,31,32,33,34,35,36,37,38,39,40,41},
	{2,3,4,5,6,7,8,9,10,11,12,13,14,15,16,17,18,19,20,21,22,23,24,25,26,27,28,29,30,31,32,33,34,35,36,37,38,39,40,41},
	{2,4,5,6,7,8,12,13,14,15,18,20,21,22,23,24,25,26,27,28,29,30,31,32,33,34,35,38,39,40,41},
	{2,3,4,5,6,7,8,9,10,11,12,13,14,15,16,17,18,19,20,21,22,23,24,25,26,27,28,29,30,31,32,33,34,35,36,37,38,39,40,41},
	{2,3,4,5,6,7,8,9,10,11,12,13,14,15,16,17,18,19,20,21,22,23,24,25,26,27,28,29,30,31,32,33,34,35,36,37,38,39,40,41},
	{2,3,4,5,6,7,8,9,10,11,12,13,14,15,16,17,18,19,20,21,22,23,24,25,26,27,28,29,30,31,32,33,34,35,36,37,38,39,40,41},
	{2,3,4,6,7,9,10,11,12,15,16,17,18,19,21,23,25,26,27,30,31,32,36,37,38,41},
	{2,3,5,7,8,9,10,11,13,14,15,16,17,19,20,22,24,25,27,28,29,31,33,34,35,36,37,38,39,40,41},
	{2,3,4,6,7,9,10,11,12,15,16,17,18,19,21,23,25,26,27,30,31,32,36,37,38,41},
	{2,3,4,5,6,7,8,9,10,11,12,13,14,15,16,17,18,19,20,21,22,23,24,25,26,27,28,29,30,31,32,33,34,35,36,37,38,39,40,41},
	{2,3,4,5,6,7,8,9,10,11,12,13,14,15,16,17,18,19,20,21,22,23,24,25,26,27,28,29,30,31,32,33,34,35,36,37,38,39,40,41},
	{2,4,5,6,7,8,12,13,14,15,18,20,21,22,23,24,25,26,27,28,29,30,31,32,33,34,35,38,39,40,41},
	{2,3,4,5,6,7,8,9,10,11,12,13,14,15,16,17,18,19,20,21,22,23,24,25,26,27,28,29,30,31,32,33,34,35,36,37,38,39,40,41},
	{2,3,4,5,6,7,8,9,10,11,12,13,14,15,16,17,18,19,20,21,22,23,24,25,26,27,28,29,30,31,32,33,34,35,36,37,38,39,40,41},
	{2,3,4,5,6,7,8,9,10,11,12,13,14,15,16,17,18,19,20,21,22,23,24,25,26,27,28,29,30,31,32,33,34,35,36,37,38,39,40,41},
	{2,3,5,7,8,9,10,11,13,14,15,16,17,19,20,22,24,25,27,28,29,31,33,34,35,36,37,38,39,40,41},
	{2,3,4,5,6,7,8,9,10,11,12,13,14,15,16,17,18,19,20,21,22,23,24,25,26,27,28,29,30,31,32,33,34,35,36,37,38,39,40,41},
	{2,3,4,5,6,7,8,9,10,11,12,13,14,15,16,17,18,19,20,21,22,23,24,25,26,27,28,29,30,31,32,33,34,35,36,37,38,39,40,41},
	{2,3,4,5,6,7,8,9,10,11,12,13,14,15,16,17,18,19,20,21,22,23,24,25,26,27,28,29,30,31,32,33,34,35,36,37,38,39,40,41}];
